
Gurobi 8.1.0 (win64, Python) logging started 02/20/19 11:19:44

Academic license - for non-commercial use only

Gurobi 8.1.0 (win64, Python) logging started 02/20/19 11:21:08

Academic license - for non-commercial use only

Gurobi 8.1.0 (win64, Python) logging started 02/20/19 11:25:10

Academic license - for non-commercial use only

Gurobi 8.1.0 (win64, Python) logging started 02/20/19 11:25:32

Academic license - for non-commercial use only

Gurobi 8.1.0 (win64, Python) logging started 02/20/19 11:26:50

Academic license - for non-commercial use only

Gurobi 8.1.0 (win64, Python) logging started 02/20/19 11:27:35

Academic license - for non-commercial use only
